words_hard_train/7083.qaiger
aag 73 16 0 1 57
2
4
8
10
20
22
26
28
40
42
54
56
68
70
90
92
147
6 2 5
12 8 11
14 7 13
16 9 10
18 13 17
24 20 23
30 27 28
32 26 29
34 31 33
36 24 34
38 37 33
44 41 42
46 40 43
48 45 47
50 39 48
52 51 47
58 55 56
60 54 57
62 59 61
64 53 62
66 65 61
72 69 70
74 68 71
76 73 75
78 67 76
80 79 75
82 18 81
84 14 83
86 3 4
88 85 87
94 90 92
96 91 93
98 95 97
100 89 98
102 88 99
104 101 103
106 52 63
108 107 65
110 38 49
112 111 51
114 109 113
116 25 35
118 117 37
120 66 77
122 121 79
124 119 123
126 7 99
128 82 126
130 126 19
132 98 87
134 16 133
136 131 135
138 137 80
140 129 139
142 124 141
144 114 142
146 105 145
i0 2 y2[6]
i1 1 x2[6]
i2 2 y2[5]
i3 1 x2[5]
i4 2 y2[0]
i5 1 x2[0]
i6 2 y2[1]
i7 1 x2[1]
i8 2 y2[2]
i9 1 x2[2]
i10 2 y2[3]
i11 1 x2[3]
i12 2 y2[4]
i13 1 x2[4]
i14 2 y2[7]
i15 1 x2[7]
o0 bv[0]
c
simplified
  >=
    reverse
      128
    subtract
      2 y2
      add
        1
        1 x2
