words_hard_train/7083.qaiger.qdimacs
p cnf 73 172
a 2 35 5 11 14 46 21 28 0
e 1 3 4 6 7 8 9 10 12 13 15 16 17 18 19 20 22 23 24 25 26 27 29 30 31 32 33 34 36 37 38 39 40 41 42 43 44 45 47 48 49 50 51 52 53 54 55 56 57 58 59 60 61 62 63 64 65 66 67 68 69 70 71 72 73 0
-1 2 3 0
1 -3 0
-2 -3 0
-4 5 6 0
4 -6 0
-5 -6 0
3 6 7 0
-3 -7 0
-6 -7 0
4 -5 8 0
-4 -8 0
5 -8 0
6 8 9 0
-6 -9 0
-8 -9 0
-10 11 12 0
10 -12 0
-11 -12 0
13 -14 15 0
-13 -15 0
14 -15 0
-13 14 16 0
13 -16 0
-14 -16 0
15 16 17 0
-15 -17 0
-16 -17 0
-12 -17 18 0
12 -18 0
17 -18 0
18 16 19 0
-18 -19 0
-16 -19 0
20 -21 22 0
-20 -22 0
21 -22 0
-20 21 23 0
20 -23 0
-21 -23 0
22 23 24 0
-22 -24 0
-23 -24 0
19 -24 25 0
-19 -25 0
24 -25 0
25 23 26 0
-25 -26 0
-23 -26 0
27 -28 29 0
-27 -29 0
28 -29 0
-27 28 30 0
27 -30 0
-28 -30 0
29 30 31 0
-29 -31 0
-30 -31 0
26 -31 32 0
-26 -32 0
31 -32 0
32 30 33 0
-32 -33 0
-30 -33 0
34 -35 36 0
-34 -36 0
35 -36 0
-34 35 37 0
34 -37 0
-35 -37 0
36 37 38 0
-36 -38 0
-37 -38 0
33 -38 39 0
-33 -39 0
38 -39 0
39 37 40 0
-39 -40 0
-37 -40 0
-9 40 41 0
9 -41 0
-40 -41 0
-7 41 42 0
7 -42 0
-41 -42 0
1 -2 43 0
-1 -43 0
2 -43 0
42 43 44 0
-42 -44 0
-43 -44 0
-45 -46 47 0
45 -47 0
46 -47 0
45 46 48 0
-45 -48 0
-46 -48 0
47 48 49 0
-47 -49 0
-48 -49 0
44 -49 50 0
-44 -50 0
49 -50 0
-44 49 51 0
44 -51 0
-49 -51 0
50 51 52 0
-50 -52 0
-51 -52 0
-26 31 53 0
26 -53 0
-31 -53 0
53 32 54 0
-53 -54 0
-32 -54 0
-19 24 55 0
19 -55 0
-24 -55 0
55 25 56 0
-55 -56 0
-25 -56 0
54 56 57 0
-54 -57 0
-56 -57 0
12 17 58 0
-12 -58 0
-17 -58 0
58 18 59 0
-58 -59 0
-18 -59 0
-33 38 60 0
33 -60 0
-38 -60 0
60 39 61 0
-60 -61 0
-39 -61 0
59 61 62 0
-59 -62 0
-61 -62 0
3 49 63 0
-3 -63 0
-49 -63 0
-41 -63 64 0
41 -64 0
63 -64 0
-63 9 65 0
63 -65 0
-9 -65 0
-49 43 66 0
49 -66 0
-43 -66 0
-8 66 67 0
8 -67 0
-66 -67 0
65 67 68 0
-65 -68 0
-67 -68 0
68 -40 69 0
-68 -69 0
40 -69 0
64 69 70 0
-64 -70 0
-69 -70 0
-62 70 71 0
62 -71 0
-70 -71 0
-57 -71 72 0
57 -72 0
71 -72 0
52 72 73 0
-52 -73 0
-72 -73 0
-73 0
